problems/csplib-prob110/ArmiesOfQueens-models/noch/O2/minion/model_1_2-07-solution000001.solution
language Essence 1.3

letting black be {(1, 1), (1, 2), (1, 3)}
$ Here is a simple "visualisation" for the value above.
$ 1 1
$ 1 2
$ 1 3

letting white be {(2, 5), (2, 6), (2, 7)}
$ Here is a simple "visualisation" for the value above.
$ 2 5
$ 2 6
$ 2 7

